Generations:
0: ((4, 12, 2, 29, 3, 41, 15, 35, 49, 34, 20, 21, 47, 31, 9, 37, 44, 23, 36, 43, 40, 13, 16, 22, 26, 25, 5, 7, 11, 10, 14, 28, 45, 1, 32, 0, 42, 18, 33, 8, 19, 46, 38, 24, 6, 48, 27, 30, 17, 39), 1557)
1: ((4, 12, 2, 29, 3, 41, 15, 35, 49, 34, 20, 21, 47, 31, 9, 37, 44, 23, 36, 43, 40, 13, 16, 22, 26, 25, 5, 7, 11, 10, 14, 28, 45, 1, 32, 0, 42, 18, 33, 8, 19, 46, 38, 24, 6, 48, 27, 30, 17, 39), 1557)
2: ((4, 12, 2, 29, 3, 41, 15, 35, 49, 34, 20, 21, 47, 31, 9, 37, 44, 23, 36, 43, 40, 13, 16, 22, 26, 25, 5, 7, 11, 10, 14, 28, 45, 1, 32, 0, 42, 18, 33, 8, 19, 46, 38, 24, 6, 48, 27, 30, 17, 39), 1557)
3: ((44, 0, 26, 12, 49, 18, 5, 11, 2, 13, 30, 1, 7, 6, 45, 4, 21, 32, 46, 29, 8, 19, 10, 16, 17, 22, 36, 48, 47, 31, 42, 37, 28, 40, 9, 34, 3, 39, 41, 20, 27, 23, 24, 15, 35, 43, 38, 25, 14, 33), 1556)
4: ((44, 0, 26, 12, 49, 18, 5, 11, 2, 13, 30, 1, 7, 6, 45, 4, 21, 32, 46, 29, 8, 19, 10, 16, 17, 22, 36, 48, 47, 31, 42, 37, 28, 40, 9, 34, 3, 39, 41, 20, 27, 23, 24, 15, 35, 43, 38, 25, 14, 33), 1556)
5: ((44, 0, 26, 12, 49, 18, 5, 11, 2, 13, 30, 1, 7, 6, 45, 4, 21, 32, 46, 29, 8, 19, 10, 16, 17, 22, 36, 48, 47, 31, 42, 37, 28, 40, 9, 34, 3, 39, 41, 20, 27, 23, 24, 15, 35, 43, 38, 25, 14, 33), 1556)
6: ((44, 0, 26, 12, 49, 18, 5, 11, 2, 13, 30, 1, 7, 6, 45, 4, 21, 32, 46, 29, 8, 19, 10, 16, 17, 22, 36, 48, 47, 31, 42, 37, 28, 40, 9, 34, 3, 39, 41, 20, 27, 23, 24, 15, 35, 43, 38, 25, 14, 33), 1556)
7: ((44, 0, 26, 12, 49, 18, 5, 11, 2, 13, 30, 1, 7, 6, 45, 4, 21, 32, 46, 29, 8, 19, 10, 16, 17, 22, 36, 48, 47, 31, 42, 37, 28, 40, 9, 34, 3, 39, 41, 20, 27, 23, 24, 15, 35, 43, 38, 25, 14, 33), 1556)
8: ((44, 0, 26, 12, 49, 18, 5, 11, 2, 13, 30, 1, 7, 6, 45, 4, 21, 32, 46, 29, 8, 19, 10, 16, 17, 22, 36, 48, 47, 31, 42, 37, 28, 40, 9, 34, 3, 39, 41, 20, 27, 23, 24, 15, 35, 43, 38, 25, 14, 33), 1556)
9: ((44, 0, 26, 12, 49, 18, 5, 11, 2, 13, 30, 1, 7, 6, 45, 4, 21, 32, 46, 29, 8, 19, 10, 16, 17, 22, 36, 48, 47, 31, 42, 37, 28, 40, 9, 34, 3, 39, 41, 20, 27, 23, 24, 15, 35, 43, 38, 25, 14, 33), 1556)
10: ((44, 0, 26, 12, 49, 18, 5, 11, 2, 13, 30, 1, 7, 6, 45, 4, 21, 32, 46, 29, 8, 19, 10, 16, 17, 22, 36, 48, 47, 31, 42, 37, 28, 40, 9, 34, 3, 39, 41, 20, 27, 23, 24, 15, 35, 43, 38, 25, 14, 33), 1556)
11: ((44, 0, 26, 12, 49, 18, 5, 11, 2, 13, 30, 1, 7, 6, 45, 4, 21, 32, 46, 29, 8, 19, 10, 16, 17, 22, 36, 48, 47, 31, 42, 37, 28, 40, 9, 34, 3, 39, 41, 20, 27, 23, 24, 15, 35, 43, 38, 25, 14, 33), 1556)
12: ((44, 0, 26, 12, 49, 18, 5, 11, 2, 13, 30, 1, 7, 6, 45, 4, 21, 32, 46, 29, 8, 19, 10, 16, 17, 22, 36, 48, 47, 31, 42, 37, 28, 40, 9, 34, 3, 39, 41, 20, 27, 23, 24, 15, 35, 43, 38, 25, 14, 33), 1556)
13: ((44, 0, 26, 12, 49, 18, 5, 11, 2, 13, 30, 1, 7, 6, 45, 4, 21, 32, 46, 29, 8, 19, 10, 16, 17, 22, 36, 48, 47, 31, 42, 37, 28, 40, 9, 34, 3, 39, 41, 20, 27, 23, 24, 15, 35, 43, 38, 25, 14, 33), 1556)
14: ((44, 0, 26, 12, 49, 18, 5, 11, 2, 13, 30, 1, 7, 6, 45, 4, 21, 32, 46, 29, 8, 19, 10, 16, 17, 22, 36, 48, 47, 31, 42, 37, 28, 40, 9, 34, 3, 39, 41, 20, 27, 23, 24, 15, 35, 43, 38, 25, 14, 33), 1556)
15: ((44, 0, 26, 12, 49, 18, 5, 11, 2, 13, 30, 1, 7, 6, 45, 4, 21, 32, 46, 29, 8, 19, 10, 16, 17, 22, 36, 48, 47, 31, 42, 37, 28, 40, 9, 34, 3, 39, 41, 20, 27, 23, 24, 15, 35, 43, 38, 25, 14, 33), 1556)
16: ((44, 0, 26, 12, 49, 18, 5, 11, 2, 13, 30, 1, 7, 6, 45, 4, 21, 32, 46, 29, 8, 19, 10, 16, 17, 22, 36, 48, 47, 31, 42, 37, 28, 40, 9, 34, 3, 39, 41, 20, 27, 23, 24, 15, 35, 43, 38, 25, 14, 33), 1556)
17: ((44, 0, 26, 12, 49, 18, 5, 11, 2, 13, 30, 1, 7, 6, 45, 4, 21, 32, 46, 29, 8, 19, 10, 16, 17, 22, 36, 48, 47, 31, 42, 37, 28, 40, 9, 34, 3, 39, 41, 20, 27, 23, 24, 15, 35, 43, 38, 25, 14, 33), 1556)
18: ((44, 0, 26, 12, 49, 18, 5, 11, 2, 13, 30, 1, 7, 6, 45, 4, 21, 32, 46, 29, 8, 19, 10, 16, 17, 22, 36, 48, 47, 31, 42, 37, 28, 40, 9, 34, 3, 39, 41, 20, 27, 23, 24, 15, 35, 43, 38, 25, 14, 33), 1556)
19: ((44, 0, 26, 12, 49, 18, 5, 11, 2, 13, 30, 1, 7, 6, 45, 4, 21, 32, 46, 29, 8, 19, 10, 16, 17, 22, 36, 48, 47, 31, 42, 37, 28, 40, 9, 34, 3, 39, 41, 20, 27, 23, 24, 15, 35, 43, 38, 25, 14, 33), 1556)
20: ((44, 0, 26, 12, 49, 18, 5, 11, 2, 13, 30, 1, 7, 6, 45, 4, 21, 32, 46, 29, 8, 19, 10, 16, 17, 22, 36, 48, 47, 31, 42, 37, 28, 40, 9, 34, 3, 39, 41, 20, 27, 23, 24, 15, 35, 43, 38, 25, 14, 33), 1556)
21: ((44, 0, 26, 12, 49, 18, 5, 11, 2, 13, 30, 1, 7, 6, 45, 4, 21, 32, 46, 29, 8, 19, 10, 16, 17, 22, 36, 48, 47, 31, 42, 37, 28, 40, 9, 34, 3, 39, 41, 20, 27, 23, 24, 15, 35, 43, 38, 25, 14, 33), 1556)
22: ((44, 0, 26, 12, 49, 18, 5, 11, 2, 13, 30, 1, 7, 6, 45, 4, 21, 32, 46, 29, 8, 19, 10, 16, 17, 22, 36, 48, 47, 31, 42, 37, 28, 40, 9, 34, 3, 39, 41, 20, 27, 23, 24, 15, 35, 43, 38, 25, 14, 33), 1556)
23: ((44, 0, 26, 12, 49, 18, 5, 11, 2, 13, 30, 1, 7, 6, 45, 4, 21, 32, 46, 29, 8, 19, 10, 16, 17, 22, 36, 48, 47, 31, 42, 37, 28, 40, 9, 34, 3, 39, 41, 20, 27, 23, 24, 15, 35, 43, 38, 25, 14, 33), 1556)
24: ((44, 0, 26, 12, 49, 18, 5, 11, 2, 13, 30, 1, 7, 6, 45, 4, 21, 32, 46, 29, 8, 19, 10, 16, 17, 22, 36, 48, 47, 31, 42, 37, 28, 40, 9, 34, 3, 39, 41, 20, 27, 23, 24, 15, 35, 43, 38, 25, 14, 33), 1556)
25: ((44, 0, 26, 12, 49, 18, 5, 11, 2, 13, 30, 1, 7, 6, 45, 4, 21, 32, 46, 29, 8, 19, 10, 16, 17, 22, 36, 48, 47, 31, 42, 37, 28, 40, 9, 34, 3, 39, 41, 20, 27, 23, 24, 15, 35, 43, 38, 25, 14, 33), 1556)
26: ((44, 0, 26, 12, 49, 18, 5, 11, 2, 13, 30, 1, 7, 6, 45, 4, 21, 32, 46, 29, 8, 19, 10, 16, 17, 22, 36, 48, 47, 31, 42, 37, 28, 40, 9, 34, 3, 39, 41, 20, 27, 23, 24, 15, 35, 43, 38, 25, 14, 33), 1556)
27: ((44, 0, 26, 12, 49, 18, 5, 11, 2, 13, 30, 1, 7, 6, 45, 4, 21, 32, 46, 29, 8, 19, 10, 16, 17, 22, 36, 48, 47, 31, 42, 37, 28, 40, 9, 34, 3, 39, 41, 20, 27, 23, 24, 15, 35, 43, 38, 25, 14, 33), 1556)
28: ((44, 0, 26, 12, 49, 18, 5, 11, 2, 13, 30, 1, 7, 6, 45, 4, 21, 32, 46, 29, 8, 19, 10, 16, 17, 22, 36, 48, 47, 31, 42, 37, 28, 40, 9, 34, 3, 39, 41, 20, 27, 23, 24, 15, 35, 43, 38, 25, 14, 33), 1556)
29: ((44, 0, 26, 12, 49, 18, 5, 11, 2, 13, 30, 1, 7, 6, 45, 4, 21, 32, 46, 29, 8, 19, 10, 16, 17, 22, 36, 48, 47, 31, 42, 37, 28, 40, 9, 34, 3, 39, 41, 20, 27, 23, 24, 15, 35, 43, 38, 25, 14, 33), 1556)
30: ((44, 0, 26, 12, 49, 18, 5, 11, 2, 13, 30, 1, 7, 6, 45, 4, 21, 32, 46, 29, 8, 19, 10, 16, 17, 22, 36, 48, 47, 31, 42, 37, 28, 40, 9, 34, 3, 39, 41, 20, 27, 23, 24, 15, 35, 43, 38, 25, 14, 33), 1556)
31: ((44, 0, 26, 12, 49, 18, 5, 11, 2, 13, 30, 1, 7, 6, 45, 4, 21, 32, 46, 29, 8, 19, 10, 16, 17, 22, 36, 48, 47, 31, 42, 37, 28, 40, 9, 34, 3, 39, 41, 20, 27, 23, 24, 15, 35, 43, 38, 25, 14, 33), 1556)
32: ((44, 0, 26, 12, 49, 18, 5, 11, 2, 13, 30, 1, 7, 6, 45, 4, 21, 32, 46, 29, 8, 19, 10, 16, 17, 22, 36, 48, 47, 31, 42, 37, 28, 40, 9, 34, 3, 39, 41, 20, 27, 23, 24, 15, 35, 43, 38, 25, 14, 33), 1556)
33: ((44, 0, 26, 12, 49, 18, 5, 11, 2, 13, 30, 1, 7, 6, 45, 4, 21, 32, 46, 29, 8, 19, 10, 16, 17, 22, 36, 48, 47, 31, 42, 37, 28, 40, 9, 34, 3, 39, 41, 20, 27, 23, 24, 15, 35, 43, 38, 25, 14, 33), 1556)
34: ((44, 0, 26, 12, 49, 18, 5, 11, 2, 13, 30, 1, 7, 6, 45, 4, 21, 32, 46, 29, 8, 19, 10, 16, 17, 22, 36, 48, 47, 31, 42, 37, 28, 40, 9, 34, 3, 39, 41, 20, 27, 23, 24, 15, 35, 43, 38, 25, 14, 33), 1556)
35: ((44, 0, 26, 12, 49, 18, 5, 11, 2, 13, 30, 1, 7, 6, 45, 4, 21, 32, 46, 29, 8, 19, 10, 16, 17, 22, 36, 48, 47, 31, 42, 37, 28, 40, 9, 34, 3, 39, 41, 20, 27, 23, 24, 15, 35, 43, 38, 25, 14, 33), 1556)
36: ((44, 0, 26, 12, 49, 18, 5, 11, 2, 13, 30, 1, 7, 6, 45, 4, 21, 32, 46, 29, 8, 19, 10, 16, 17, 22, 36, 48, 47, 31, 42, 37, 28, 40, 9, 34, 3, 39, 41, 20, 27, 23, 24, 15, 35, 43, 38, 25, 14, 33), 1556)
37: ((44, 0, 26, 12, 49, 18, 5, 11, 2, 13, 30, 1, 7, 6, 45, 4, 21, 32, 46, 29, 8, 19, 10, 16, 17, 22, 36, 48, 47, 31, 42, 37, 28, 40, 9, 34, 3, 39, 41, 20, 27, 23, 24, 15, 35, 43, 38, 25, 14, 33), 1556)
38: ((44, 0, 26, 12, 49, 18, 5, 11, 2, 13, 30, 1, 7, 6, 45, 4, 21, 32, 46, 29, 8, 19, 10, 16, 17, 22, 36, 48, 47, 31, 42, 37, 28, 40, 9, 34, 3, 39, 41, 20, 27, 23, 24, 15, 35, 43, 38, 25, 14, 33), 1556)
39: ((44, 0, 26, 12, 49, 18, 5, 11, 2, 13, 30, 1, 7, 6, 45, 4, 21, 32, 46, 29, 8, 19, 10, 16, 17, 22, 36, 48, 47, 31, 42, 37, 28, 40, 9, 34, 3, 39, 41, 20, 27, 23, 24, 15, 35, 43, 38, 25, 14, 33), 1556)
40: ((44, 0, 26, 12, 49, 18, 5, 11, 2, 13, 30, 1, 7, 6, 45, 4, 21, 32, 46, 29, 8, 19, 10, 16, 17, 22, 36, 48, 47, 31, 42, 37, 28, 40, 9, 34, 3, 39, 41, 20, 27, 23, 24, 15, 35, 43, 38, 25, 14, 33), 1556)
41: ((44, 0, 26, 12, 49, 18, 5, 11, 2, 13, 30, 1, 7, 6, 45, 4, 21, 32, 46, 29, 8, 19, 10, 16, 17, 22, 36, 48, 47, 31, 42, 37, 28, 40, 9, 34, 3, 39, 41, 20, 27, 23, 24, 15, 35, 43, 38, 25, 14, 33), 1556)
42: ((44, 0, 26, 12, 49, 18, 5, 11, 2, 13, 30, 1, 7, 6, 45, 4, 21, 32, 46, 29, 8, 19, 10, 16, 17, 22, 36, 48, 47, 31, 42, 37, 28, 40, 9, 34, 3, 39, 41, 20, 27, 23, 24, 15, 35, 43, 38, 25, 14, 33), 1556)
43: ((44, 0, 26, 12, 49, 18, 5, 11, 2, 13, 30, 1, 7, 6, 45, 4, 21, 32, 46, 29, 8, 19, 10, 16, 17, 22, 36, 48, 47, 31, 42, 37, 28, 40, 9, 34, 3, 39, 41, 20, 27, 23, 24, 15, 35, 43, 38, 25, 14, 33), 1556)
44: ((44, 0, 26, 12, 49, 18, 5, 11, 2, 13, 30, 1, 7, 6, 45, 4, 21, 32, 46, 29, 8, 19, 10, 16, 17, 22, 36, 48, 47, 31, 42, 37, 28, 40, 9, 34, 3, 39, 41, 20, 27, 23, 24, 15, 35, 43, 38, 25, 14, 33), 1556)
45: ((44, 0, 26, 12, 49, 18, 5, 11, 2, 13, 30, 1, 7, 6, 45, 4, 21, 32, 46, 29, 8, 19, 10, 16, 17, 22, 36, 48, 47, 31, 42, 37, 28, 40, 9, 34, 3, 39, 41, 20, 27, 23, 24, 15, 35, 43, 38, 25, 14, 33), 1556)
46: ((44, 0, 26, 12, 49, 18, 5, 11, 2, 13, 30, 1, 7, 6, 45, 4, 21, 32, 46, 29, 8, 19, 10, 16, 17, 22, 36, 48, 47, 31, 42, 37, 28, 40, 9, 34, 3, 39, 41, 20, 27, 23, 24, 15, 35, 43, 38, 25, 14, 33), 1556)
47: ((44, 0, 26, 12, 49, 18, 5, 11, 2, 13, 30, 1, 7, 6, 45, 4, 21, 32, 46, 29, 8, 19, 10, 16, 17, 22, 36, 48, 47, 31, 42, 37, 28, 40, 9, 34, 3, 39, 41, 20, 27, 23, 24, 15, 35, 43, 38, 25, 14, 33), 1556)
48: ((44, 0, 26, 12, 49, 18, 5, 11, 2, 13, 30, 1, 7, 6, 45, 4, 21, 32, 46, 29, 8, 19, 10, 16, 17, 22, 36, 48, 47, 31, 42, 37, 28, 40, 9, 34, 3, 39, 41, 20, 27, 23, 24, 15, 35, 43, 38, 25, 14, 33), 1556)
49: ((44, 0, 26, 12, 49, 18, 5, 11, 2, 13, 30, 1, 7, 6, 45, 4, 21, 32, 46, 29, 8, 19, 10, 16, 17, 22, 36, 48, 47, 31, 42, 37, 28, 40, 9, 34, 3, 39, 41, 20, 27, 23, 24, 15, 35, 43, 38, 25, 14, 33), 1556)
50: ((44, 0, 26, 12, 49, 18, 5, 11, 2, 13, 30, 1, 7, 6, 45, 4, 21, 32, 46, 29, 8, 19, 10, 16, 17, 22, 36, 48, 47, 31, 42, 37, 28, 40, 9, 34, 3, 39, 41, 20, 27, 23, 24, 15, 35, 43, 38, 25, 14, 33), 1556)
51: ((44, 0, 26, 12, 49, 18, 5, 11, 2, 13, 30, 1, 7, 6, 45, 4, 21, 32, 46, 29, 8, 19, 10, 16, 17, 22, 36, 48, 47, 31, 42, 37, 28, 40, 9, 34, 3, 39, 41, 20, 27, 23, 24, 15, 35, 43, 38, 25, 14, 33), 1556)
52: ((44, 0, 26, 12, 49, 18, 5, 11, 2, 13, 30, 1, 7, 6, 45, 4, 21, 32, 46, 29, 8, 19, 10, 16, 17, 22, 36, 48, 47, 31, 42, 37, 28, 40, 9, 34, 3, 39, 41, 20, 27, 23, 24, 15, 35, 43, 38, 25, 14, 33), 1556)
53: ((44, 0, 26, 12, 49, 18, 5, 11, 2, 13, 30, 1, 7, 6, 45, 4, 21, 32, 46, 29, 8, 19, 10, 16, 17, 22, 36, 48, 47, 31, 42, 37, 28, 40, 9, 34, 3, 39, 41, 20, 27, 23, 24, 15, 35, 43, 38, 25, 14, 33), 1556)
54: ((44, 0, 26, 12, 49, 18, 5, 11, 2, 13, 30, 1, 7, 6, 45, 4, 21, 32, 46, 29, 8, 19, 10, 16, 17, 22, 36, 48, 47, 31, 42, 37, 28, 40, 9, 34, 3, 39, 41, 20, 27, 23, 24, 15, 35, 43, 38, 25, 14, 33), 1556)
55: ((44, 0, 26, 12, 49, 18, 5, 11, 2, 13, 30, 1, 7, 6, 45, 4, 21, 32, 46, 29, 8, 19, 10, 16, 17, 22, 36, 48, 47, 31, 42, 37, 28, 40, 9, 34, 3, 39, 41, 20, 27, 23, 24, 15, 35, 43, 38, 25, 14, 33), 1556)
56: ((44, 0, 26, 12, 49, 18, 5, 11, 2, 13, 30, 1, 7, 6, 45, 4, 21, 32, 46, 29, 8, 19, 10, 16, 17, 22, 36, 48, 47, 31, 42, 37, 28, 40, 9, 34, 3, 39, 41, 20, 27, 23, 24, 15, 35, 43, 38, 25, 14, 33), 1556)
57: ((44, 0, 26, 12, 49, 18, 5, 11, 2, 13, 30, 1, 7, 6, 45, 4, 21, 32, 46, 29, 8, 19, 10, 16, 17, 22, 36, 48, 47, 31, 42, 37, 28, 40, 9, 34, 3, 39, 41, 20, 27, 23, 24, 15, 35, 43, 38, 25, 14, 33), 1556)
58: ((44, 0, 26, 12, 49, 18, 5, 11, 2, 13, 30, 1, 7, 6, 45, 4, 21, 32, 46, 29, 8, 19, 10, 16, 17, 22, 36, 48, 47, 31, 42, 37, 28, 40, 9, 34, 3, 39, 41, 20, 27, 23, 24, 15, 35, 43, 38, 25, 14, 33), 1556)
59: ((44, 0, 26, 12, 49, 18, 5, 11, 2, 13, 30, 1, 7, 6, 45, 4, 21, 32, 46, 29, 8, 19, 10, 16, 17, 22, 36, 48, 47, 31, 42, 37, 28, 40, 9, 34, 3, 39, 41, 20, 27, 23, 24, 15, 35, 43, 38, 25, 14, 33), 1556)
60: ((44, 0, 26, 12, 49, 18, 5, 11, 2, 13, 30, 1, 7, 6, 45, 4, 21, 32, 46, 29, 8, 19, 10, 16, 17, 22, 36, 48, 47, 31, 42, 37, 28, 40, 9, 34, 3, 39, 41, 20, 27, 23, 24, 15, 35, 43, 38, 25, 14, 33), 1556)
61: ((44, 0, 26, 12, 49, 18, 5, 11, 2, 13, 30, 1, 7, 6, 45, 4, 21, 32, 46, 29, 8, 19, 10, 16, 17, 22, 36, 48, 47, 31, 42, 37, 28, 40, 9, 34, 3, 39, 41, 20, 27, 23, 24, 15, 35, 43, 38, 25, 14, 33), 1556)
62: ((44, 0, 26, 12, 49, 18, 5, 11, 2, 13, 30, 1, 7, 6, 45, 4, 21, 32, 46, 29, 8, 19, 10, 16, 17, 22, 36, 48, 47, 31, 42, 37, 28, 40, 9, 34, 3, 39, 41, 20, 27, 23, 24, 15, 35, 43, 38, 25, 14, 33), 1556)
63: ((44, 0, 26, 12, 49, 18, 5, 11, 2, 13, 30, 1, 7, 6, 45, 4, 21, 32, 46, 29, 8, 19, 10, 16, 17, 22, 36, 48, 47, 31, 42, 37, 28, 40, 9, 34, 3, 39, 41, 20, 27, 23, 24, 15, 35, 43, 38, 25, 14, 33), 1556)
64: ((44, 0, 26, 12, 49, 18, 5, 11, 2, 13, 30, 1, 7, 6, 45, 4, 21, 32, 46, 29, 8, 19, 10, 16, 17, 22, 36, 48, 47, 31, 42, 37, 28, 40, 9, 34, 3, 39, 41, 20, 27, 23, 24, 15, 35, 43, 38, 25, 14, 33), 1556)
65: ((44, 0, 26, 12, 49, 18, 5, 11, 2, 13, 30, 1, 7, 6, 45, 4, 21, 32, 46, 29, 8, 19, 10, 16, 17, 22, 36, 48, 47, 31, 42, 37, 28, 40, 9, 34, 3, 39, 41, 20, 27, 23, 24, 15, 35, 43, 38, 25, 14, 33), 1556)
66: ((44, 0, 26, 12, 49, 18, 5, 11, 2, 13, 30, 1, 7, 6, 45, 4, 21, 32, 46, 29, 8, 19, 10, 16, 17, 22, 36, 48, 47, 31, 42, 37, 28, 40, 9, 34, 3, 39, 41, 20, 27, 23, 24, 15, 35, 43, 38, 25, 14, 33), 1556)
67: ((44, 0, 26, 12, 49, 18, 5, 11, 2, 13, 30, 1, 7, 6, 45, 4, 21, 32, 46, 29, 8, 19, 10, 16, 17, 22, 36, 48, 47, 31, 42, 37, 28, 40, 9, 34, 3, 39, 41, 20, 27, 23, 24, 15, 35, 43, 38, 25, 14, 33), 1556)
68: ((44, 0, 26, 12, 49, 18, 5, 11, 2, 13, 30, 1, 7, 6, 45, 4, 21, 32, 46, 29, 8, 19, 10, 16, 17, 22, 36, 48, 47, 31, 42, 37, 28, 40, 9, 34, 3, 39, 41, 20, 27, 23, 24, 15, 35, 43, 38, 25, 14, 33), 1556)
69: ((44, 0, 26, 12, 49, 18, 5, 11, 2, 13, 30, 1, 7, 6, 45, 4, 21, 32, 46, 29, 8, 19, 10, 16, 17, 22, 36, 48, 47, 31, 42, 37, 28, 40, 9, 34, 3, 39, 41, 20, 27, 23, 24, 15, 35, 43, 38, 25, 14, 33), 1556)
70: ((44, 0, 26, 12, 49, 18, 5, 11, 2, 13, 30, 1, 7, 6, 45, 4, 21, 32, 46, 29, 8, 19, 10, 16, 17, 22, 36, 48, 47, 31, 42, 37, 28, 40, 9, 34, 3, 39, 41, 20, 27, 23, 24, 15, 35, 43, 38, 25, 14, 33), 1556)
71: ((44, 0, 26, 12, 49, 18, 5, 11, 2, 13, 30, 1, 7, 6, 45, 4, 21, 32, 46, 29, 8, 19, 10, 16, 17, 22, 36, 48, 47, 31, 42, 37, 28, 40, 9, 34, 3, 39, 41, 20, 27, 23, 24, 15, 35, 43, 38, 25, 14, 33), 1556)
72: ((44, 0, 26, 12, 49, 18, 5, 11, 2, 13, 30, 1, 7, 6, 45, 4, 21, 32, 46, 29, 8, 19, 10, 16, 17, 22, 36, 48, 47, 31, 42, 37, 28, 40, 9, 34, 3, 39, 41, 20, 27, 23, 24, 15, 35, 43, 38, 25, 14, 33), 1556)
73: ((44, 0, 26, 12, 49, 18, 5, 11, 2, 13, 30, 1, 7, 6, 45, 4, 21, 32, 46, 29, 8, 19, 10, 16, 17, 22, 36, 48, 47, 31, 42, 37, 28, 40, 9, 34, 3, 39, 41, 20, 27, 23, 24, 15, 35, 43, 38, 25, 14, 33), 1556)
74: ((44, 0, 26, 12, 49, 18, 5, 11, 2, 13, 30, 1, 7, 6, 45, 4, 21, 32, 46, 29, 8, 19, 10, 16, 17, 22, 36, 48, 47, 31, 42, 37, 28, 40, 9, 34, 3, 39, 41, 20, 27, 23, 24, 15, 35, 43, 38, 25, 14, 33), 1556)
75: ((44, 0, 26, 12, 49, 18, 5, 11, 2, 13, 30, 1, 7, 6, 45, 4, 21, 32, 46, 29, 8, 19, 10, 16, 17, 22, 36, 48, 47, 31, 42, 37, 28, 40, 9, 34, 3, 39, 41, 20, 27, 23, 24, 15, 35, 43, 38, 25, 14, 33), 1556)
76: ((44, 0, 26, 12, 49, 18, 5, 11, 2, 13, 30, 1, 7, 6, 45, 4, 21, 32, 46, 29, 8, 19, 10, 16, 17, 22, 36, 48, 47, 31, 42, 37, 28, 40, 9, 34, 3, 39, 41, 20, 27, 23, 24, 15, 35, 43, 38, 25, 14, 33), 1556)
77: ((44, 0, 26, 12, 49, 18, 5, 11, 2, 13, 30, 1, 7, 6, 45, 4, 21, 32, 46, 29, 8, 19, 10, 16, 17, 22, 36, 48, 47, 31, 42, 37, 28, 40, 9, 34, 3, 39, 41, 20, 27, 23, 24, 15, 35, 43, 38, 25, 14, 33), 1556)
78: ((44, 0, 26, 12, 49, 18, 5, 11, 2, 13, 30, 1, 7, 6, 45, 4, 21, 32, 46, 29, 8, 19, 10, 16, 17, 22, 36, 48, 47, 31, 42, 37, 28, 40, 9, 34, 3, 39, 41, 20, 27, 23, 24, 15, 35, 43, 38, 25, 14, 33), 1556)
79: ((44, 0, 26, 12, 49, 18, 5, 11, 2, 13, 30, 1, 7, 6, 45, 4, 21, 32, 46, 29, 8, 19, 10, 16, 17, 22, 36, 48, 47, 31, 42, 37, 28, 40, 9, 34, 3, 39, 41, 20, 27, 23, 24, 15, 35, 43, 38, 25, 14, 33), 1556)
80: ((44, 0, 26, 12, 49, 18, 5, 11, 2, 13, 30, 1, 7, 6, 45, 4, 21, 32, 46, 29, 8, 19, 10, 16, 17, 22, 36, 48, 47, 31, 42, 37, 28, 40, 9, 34, 3, 39, 41, 20, 27, 23, 24, 15, 35, 43, 38, 25, 14, 33), 1556)
81: ((44, 0, 26, 12, 49, 18, 5, 11, 2, 13, 30, 1, 7, 6, 45, 4, 21, 32, 46, 29, 8, 19, 10, 16, 17, 22, 36, 48, 47, 31, 42, 37, 28, 40, 9, 34, 3, 39, 41, 20, 27, 23, 24, 15, 35, 43, 38, 25, 14, 33), 1556)
82: ((44, 0, 26, 12, 49, 18, 5, 11, 2, 13, 30, 1, 7, 6, 45, 4, 21, 32, 46, 29, 8, 19, 10, 16, 17, 22, 36, 48, 47, 31, 42, 37, 28, 40, 9, 34, 3, 39, 41, 20, 27, 23, 24, 15, 35, 43, 38, 25, 14, 33), 1556)
83: ((44, 0, 26, 12, 49, 18, 5, 11, 2, 13, 30, 1, 7, 6, 45, 4, 21, 32, 46, 29, 8, 19, 10, 16, 17, 22, 36, 48, 47, 31, 42, 37, 28, 40, 9, 34, 3, 39, 41, 20, 27, 23, 24, 15, 35, 43, 38, 25, 14, 33), 1556)
84: ((44, 0, 26, 12, 49, 18, 5, 11, 2, 13, 30, 1, 7, 6, 45, 4, 21, 32, 46, 29, 8, 19, 10, 16, 17, 22, 36, 48, 47, 31, 42, 37, 28, 40, 9, 34, 3, 39, 41, 20, 27, 23, 24, 15, 35, 43, 38, 25, 14, 33), 1556)
85: ((44, 0, 26, 12, 49, 18, 5, 11, 2, 13, 30, 1, 7, 6, 45, 4, 21, 32, 46, 29, 8, 19, 10, 16, 17, 22, 36, 48, 47, 31, 42, 37, 28, 40, 9, 34, 3, 39, 41, 20, 27, 23, 24, 15, 35, 43, 38, 25, 14, 33), 1556)
86: ((44, 0, 26, 12, 49, 18, 5, 11, 2, 13, 30, 1, 7, 6, 45, 4, 21, 32, 46, 29, 8, 19, 10, 16, 17, 22, 36, 48, 47, 31, 42, 37, 28, 40, 9, 34, 3, 39, 41, 20, 27, 23, 24, 15, 35, 43, 38, 25, 14, 33), 1556)
87: ((44, 0, 26, 12, 49, 18, 5, 11, 2, 13, 30, 1, 7, 6, 45, 4, 21, 32, 46, 29, 8, 19, 10, 16, 17, 22, 36, 48, 47, 31, 42, 37, 28, 40, 9, 34, 3, 39, 41, 20, 27, 23, 24, 15, 35, 43, 38, 25, 14, 33), 1556)
88: ((44, 0, 26, 12, 49, 18, 5, 11, 2, 13, 30, 1, 7, 6, 45, 4, 21, 32, 46, 29, 8, 19, 10, 16, 17, 22, 36, 48, 47, 31, 42, 37, 28, 40, 9, 34, 3, 39, 41, 20, 27, 23, 24, 15, 35, 43, 38, 25, 14, 33), 1556)
89: ((44, 0, 26, 12, 49, 18, 5, 11, 2, 13, 30, 1, 7, 6, 45, 4, 21, 32, 46, 29, 8, 19, 10, 16, 17, 22, 36, 48, 47, 31, 42, 37, 28, 40, 9, 34, 3, 39, 41, 20, 27, 23, 24, 15, 35, 43, 38, 25, 14, 33), 1556)
90: ((44, 0, 26, 12, 49, 18, 5, 11, 2, 13, 30, 1, 7, 6, 45, 4, 21, 32, 46, 29, 8, 19, 10, 16, 17, 22, 36, 48, 47, 31, 42, 37, 28, 40, 9, 34, 3, 39, 41, 20, 27, 23, 24, 15, 35, 43, 38, 25, 14, 33), 1556)
91: ((44, 0, 26, 12, 49, 18, 5, 11, 2, 13, 30, 1, 7, 6, 45, 4, 21, 32, 46, 29, 8, 19, 10, 16, 17, 22, 36, 48, 47, 31, 42, 37, 28, 40, 9, 34, 3, 39, 41, 20, 27, 23, 24, 15, 35, 43, 38, 25, 14, 33), 1556)
92: ((44, 0, 26, 12, 49, 18, 5, 11, 2, 13, 30, 1, 7, 6, 45, 4, 21, 32, 46, 29, 8, 19, 10, 16, 17, 22, 36, 48, 47, 31, 42, 37, 28, 40, 9, 34, 3, 39, 41, 20, 27, 23, 24, 15, 35, 43, 38, 25, 14, 33), 1556)
93: ((44, 0, 26, 12, 49, 18, 5, 11, 2, 13, 30, 1, 7, 6, 45, 4, 21, 32, 46, 29, 8, 19, 10, 16, 17, 22, 36, 48, 47, 31, 42, 37, 28, 40, 9, 34, 3, 39, 41, 20, 27, 23, 24, 15, 35, 43, 38, 25, 14, 33), 1556)
94: ((44, 0, 26, 12, 49, 18, 5, 11, 2, 13, 30, 1, 7, 6, 45, 4, 21, 32, 46, 29, 8, 19, 10, 16, 17, 22, 36, 48, 47, 31, 42, 37, 28, 40, 9, 34, 3, 39, 41, 20, 27, 23, 24, 15, 35, 43, 38, 25, 14, 33), 1556)
95: ((44, 0, 26, 12, 49, 18, 5, 11, 2, 13, 30, 1, 7, 6, 45, 4, 21, 32, 46, 29, 8, 19, 10, 16, 17, 22, 36, 48, 47, 31, 42, 37, 28, 40, 9, 34, 3, 39, 41, 20, 27, 23, 24, 15, 35, 43, 38, 25, 14, 33), 1556)
Best: ((44, 0, 26, 12, 49, 18, 5, 11, 2, 13, 30, 1, 7, 6, 45, 4, 21, 32, 46, 29, 8, 19, 10, 16, 17, 22, 36, 48, 47, 31, 42, 37, 28, 40, 9, 34, 3, 39, 41, 20, 27, 23, 24, 15, 35, 43, 38, 25, 14, 33), 1556)
Runtime: 26.284480700000003 s